p cnf 19 65
8 -14 -19 0
-7 15 17 0
-11 16 -17 0
-5 17 -19 0
-1 -3 -11 0
-5 -9 17 0
2 14 18 0
-6 -8 17 0
5 9 12 0
-3 -11 15 0
-10 -17 19 0
3 -6 18 0
-5 14 -19 0
-1 10 11 0
4 -14 15 0
8 -11 -15 0
-5 11 -16 0
7 12 16 0
-11 12 17 0
-3 -4 -18 0
-1 -13 -16 0
-1 3 12 0
1 4 -9 0
-10 15 -19 0
-1 11 14 0
9 17 19 0
5 -12 13 0
9 14 16 0
11 16 19 0
-6 7 12 0
4 16 17 0
10 -16 -18 0
1 -7 16 0
-5 -9 -19 0
-13 14 16 0
11 -16 -17 0
-10 12 16 0
-1 -2 15 0
-1 5 -15 0
1 -2 -11 0
-12 -13 -18 0
-1 -5 8 0
3 -9 -16 0
9 10 11 0
1 -11 15 0
-3 4 -17 0
-2 -6 -19 0
-3 5 -12 0
4 12 13 0
-5 -7 16 0
11 12 14 0
-3 -6 17 0
-1 -14 -16 0
-3 -9 18 0
-4 -5 14 0
-5 -8 11 0
3 -11 -17 0
-12 -13 -17 0
11 -16 -19 0
6 -10 -16 0
-15 -16 17 0
-6 -8 -14 0
10 -11 -19 0
3 5 16 0
5 6 17 0
